Set parameter Username
Academic license - for non-commercial use only - expires 2024-11-05
Set parameter NonConvex to value 2
Set parameter MIPGap to value 0.001
Set parameter Threads to value 144
Gurobi Optimizer version 10.0.3 build v10.0.3rc0 (linux64)

CPU model: Intel(R) Xeon(R) CPU E7-8890 v3 @ 2.50GHz, instruction set [SSE2|AVX|AVX2]
Thread count: 72 physical cores, 144 logical processors, using up to 144 threads

Optimize a model with 26 rows, 34 columns and 49 nonzeros
Model fingerprint: 0x96792405
Model has 18 quadratic constraints
Variable types: 31 continuous, 3 integer (0 binary)
Coefficient statistics:
  Matrix range     [3e-02, 3e+03]
  QMatrix range    [4e-07, 2e+09]
  QLMatrix range   [6e-05, 3e+11]
  Objective range  [1e+00, 1e+00]
  Bounds range     [1e+00, 1e+00]
  RHS range        [5e-01, 2e+12]
  QRHS range       [7e+09, 7e+09]
Warning: Model contains large rhs
Warning: Quadratic constraints contain large coefficient range
Warning: Quadratic constraints contain large coefficient range on linear part
Warning: Model contains large rhs on quadratic constraints
         Consider reformulating model or setting NumericFocus parameter
         to avoid numerical issues.
Presolve removed 26 rows and 32 columns
Presolve time: 0.00s
Presolved: 4 rows, 3 columns, 5 nonzeros
Presolved model has 1 bilinear constraint(s)
Variable types: 3 continuous, 0 integer (0 binary)

Root relaxation: objective 4.744295e+01, 1 iterations, 0.00 seconds (0.00 work units)

    Nodes    |    Current Node    |     Objective Bounds      |     Work
 Expl Unexpl |  Obj  Depth IntInf | Incumbent    BestBd   Gap | It/Node Time

*    0     0               0      47.4429450   47.44295  0.00%     -    0s

Explored 1 nodes (1 simplex iterations) in 0.01 seconds (0.00 work units)
Thread count was 144 (of 144 available processors)

Solution count 1: 47.4429 

Optimal solution found (tolerance 1.00e-03)
Best objective 4.744294504663e+01, best bound 4.744294504663e+01, gap 0.0000%
wg 0.0
wc 0.5
wd 0.5
cg 0.0
cc 0.0
cd 1.0
hg 0.0
hc 1.0
hd 0.0
bls 256.0
gbs 32.0
num_blocks 8.0
T 12145.393931937318
Tpre 7.358270124347058
Tgen 3.84375
latency_per_request 47.44294504663015
ctogp 0.28173828125
gtocp 0.50048828125
dtocp 0.84375
ctodp 3.0
compp 7.358270124347077
ctogg 0.28173828125
gtocg 0.00048828125
dtocg 3.84375
ctodg 0.005859375
compg 0.02056396270670769
gpu_compg 0.014272506706707691
cpu_compg 0.006291456000000001
gpu_home 0.0
gpu_w 10468982784.0
cpu_home 177167400960.0
cpu_w 11475615744.0
disk_home 792421466112.0
tokens_per_s 0.674494384118613
